c graph converted from Delauney Triangulation format
c weights on edges removed (lost)
x low 0.00
p edge 262 773
n 0 1.00
n 148 1.00
n 201 1.00
n 138 1.00
n 228 1.00
n 30 1.00
n 220 1.00
n 52 1.00
n 64 1.00
n 1 1.00
n 216 1.00
n 194 1.00
n 124 1.00
n 57 1.00
n 169 1.00
n 252 1.00
n 2 1.00
n 214 1.00
n 115 1.00
n 7 1.00
n 117 1.00
n 122 1.00
n 15 1.00
n 134 1.00
n 3 1.00
n 114 1.00
n 153 1.00
n 86 1.00
n 187 1.00
n 257 1.00
n 80 1.00
n 163 1.00
n 4 1.00
n 132 1.00
n 78 1.00
n 261 1.00
n 190 1.00
n 5 1.00
n 164 1.00
n 36 1.00
n 242 1.00
n 168 1.00
n 6 1.00
n 159 1.00
n 139 1.00
n 245 1.00
n 140 1.00
n 212 1.00
n 111 1.00
n 189 1.00
n 8 1.00
n 229 1.00
n 25 1.00
n 152 1.00
n 12 1.00
n 9 1.00
n 255 1.00
n 130 1.00
n 237 1.00
n 196 1.00
n 41 1.00
n 10 1.00
n 234 1.00
n 240 1.00
n 202 1.00
n 213 1.00
n 224 1.00
n 11 1.00
n 210 1.00
n 60 1.00
n 48 1.00
n 123 1.00
n 256 1.00
n 147 1.00
n 113 1.00
n 100 1.00
n 166 1.00
n 56 1.00
n 13 1.00
n 106 1.00
n 44 1.00
n 127 1.00
n 142 1.00
n 97 1.00
n 173 1.00
n 14 1.00
n 218 1.00
n 51 1.00
n 101 1.00
n 232 1.00
n 83 1.00
n 16 1.00
n 174 1.00
n 258 1.00
n 23 1.00
n 54 1.00
n 39 1.00
n 102 1.00
n 126 1.00
n 17 1.00
n 29 1.00
n 136 1.00
n 53 1.00
n 18 1.00
n 184 1.00
n 71 1.00
n 32 1.00
n 165 1.00
n 19 1.00
n 226 1.00
n 108 1.00
n 109 1.00
n 28 1.00
n 59 1.00
n 20 1.00
n 99 1.00
n 137 1.00
n 185 1.00
n 171 1.00
n 21 1.00
n 178 1.00
n 199 1.00
n 119 1.00
n 198 1.00
n 43 1.00
n 22 1.00
n 47 1.00
n 235 1.00
n 195 1.00
n 77 1.00
n 200 1.00
n 244 1.00
n 24 1.00
n 207 1.00
n 250 1.00
n 125 1.00
n 26 1.00
n 172 1.00
n 260 1.00
n 203 1.00
n 249 1.00
n 27 1.00
n 94 1.00
n 181 1.00
n 155 1.00
n 104 1.00
n 131 1.00
n 96 1.00
n 157 1.00
n 50 1.00
n 206 1.00
n 70 1.00
n 67 1.00
n 204 1.00
n 31 1.00
n 225 1.00
n 66 1.00
n 233 1.00
n 253 1.00
n 33 1.00
n 34 1.00
n 118 1.00
n 238 1.00
n 259 1.00
n 35 1.00
n 205 1.00
n 82 1.00
n 219 1.00
n 182 1.00
n 149 1.00
n 221 1.00
n 37 1.00
n 121 1.00
n 38 1.00
n 222 1.00
n 175 1.00
n 241 1.00
n 55 1.00
n 145 1.00
n 40 1.00
n 209 1.00
n 239 1.00
n 193 1.00
n 105 1.00
n 42 1.00
n 61 1.00
n 248 1.00
n 156 1.00
n 110 1.00
n 90 1.00
n 76 1.00
n 186 1.00
n 211 1.00
n 160 1.00
n 45 1.00
n 143 1.00
n 215 1.00
n 92 1.00
n 46 1.00
n 65 1.00
n 167 1.00
n 129 1.00
n 49 1.00
n 87 1.00
n 93 1.00
n 217 1.00
n 183 1.00
n 191 1.00
n 133 1.00
n 146 1.00
n 180 1.00
n 161 1.00
n 74 1.00
n 227 1.00
n 197 1.00
n 188 1.00
n 58 1.00
n 170 1.00
n 135 1.00
n 128 1.00
n 89 1.00
n 236 1.00
n 62 1.00
n 179 1.00
n 63 1.00
n 162 1.00
n 223 1.00
n 192 1.00
n 81 1.00
n 79 1.00
n 112 1.00
n 230 1.00
n 141 1.00
n 68 1.00
n 176 1.00
n 69 1.00
n 107 1.00
n 154 1.00
n 231 1.00
n 98 1.00
n 72 1.00
n 95 1.00
n 73 1.00
n 103 1.00
n 75 1.00
n 243 1.00
n 144 1.00
n 84 1.00
n 251 1.00
n 85 1.00
n 150 1.00
n 246 1.00
n 88 1.00
n 247 1.00
n 120 1.00
n 91 1.00
n 116 1.00
n 254 1.00
n 177 1.00
n 208 1.00
n 158 1.00
n 151 1.00
e 0 148
e 0 201
e 0 138
e 0 228
e 0 30
e 0 220
e 0 52
e 0 64
e 1 216
e 1 194
e 1 124
e 1 57
e 1 169
e 1 252
e 2 214
e 2 115
e 2 7
e 2 117
e 2 122
e 2 15
e 2 134
e 3 114
e 3 153
e 3 86
e 3 187
e 3 257
e 3 80
e 3 163
e 4 132
e 4 78
e 4 261
e 4 190
e 5 164
e 5 36
e 5 115
e 5 15
e 5 242
e 5 168
e 6 163
e 6 159
e 6 139
e 6 245
e 6 140
e 7 214
e 7 212
e 7 111
e 7 189
e 7 122
e 8 229
e 8 25
e 8 152
e 8 12
e 9 255
e 9 130
e 9 237
e 9 196
e 9 41
e 10 234
e 10 240
e 10 202
e 10 213
e 10 224
e 10 255
e 10 130
e 11 132
e 11 210
e 11 60
e 11 48
e 11 190
e 11 123
e 11 256
e 12 25
e 12 147
e 12 113
e 12 100
e 12 152
e 12 166
e 12 202
e 12 56
e 12 237
e 12 41
e 13 106
e 13 44
e 13 127
e 13 142
e 13 97
e 13 173
e 14 218
e 14 51
e 14 101
e 14 232
e 15 115
e 15 242
e 15 134
e 15 83
e 15 51
e 15 101
e 16 174
e 16 258
e 16 23
e 16 54
e 16 39
e 16 102
e 16 126
e 17 190
e 17 29
e 17 256
e 17 136
e 17 53
e 18 184
e 18 71
e 18 32
e 18 78
e 18 261
e 18 165
e 19 226
e 19 108
e 19 109
e 19 28
e 19 59
e 20 99
e 20 137
e 20 185
e 20 32
e 20 171
e 20 71
e 21 178
e 21 199
e 21 127
e 21 119
e 21 198
e 21 43
e 22 47
e 22 127
e 22 119
e 22 235
e 22 195
e 23 77
e 23 200
e 23 258
e 23 244
e 23 39
e 24 207
e 24 245
e 24 140
e 24 250
e 24 198
e 24 125
e 24 36
e 24 115
e 25 229
e 25 147
e 26 172
e 26 260
e 26 203
e 26 216
e 26 249
e 26 194
e 27 94
e 27 181
e 27 155
e 27 257
e 27 159
e 28 104
e 28 226
e 28 131
e 28 96
e 28 59
e 28 157
e 28 50
e 29 190
e 29 206
e 29 53
e 30 228
e 30 70
e 30 67
e 30 204
e 30 220
e 31 225
e 31 66
e 31 200
e 31 77
e 32 233
e 32 253
e 32 137
e 32 204
e 32 71
e 32 210
e 32 78
e 33 34
e 33 86
e 33 181
e 33 187
e 33 94
e 34 86
e 34 148
e 34 118
e 34 238
e 34 181
e 34 259
e 35 205
e 35 82
e 35 219
e 35 216
e 35 182
e 35 149
e 36 198
e 36 43
e 36 115
e 36 221
e 36 164
e 37 121
e 37 38
e 37 222
e 37 232
e 37 175
e 37 241
e 37 55
e 38 83
e 38 101
e 38 145
e 38 121
e 38 232
e 39 244
e 39 126
e 40 108
e 40 209
e 40 109
e 40 59
e 40 157
e 40 239
e 41 196
e 41 193
e 41 237
e 41 102
e 41 166
e 41 105
e 42 121
e 42 61
e 42 248
e 42 222
e 42 156
e 42 224
e 43 198
e 43 119
e 43 110
e 43 221
e 44 90
e 44 76
e 44 186
e 44 211
e 44 160
e 44 127
e 44 106
e 45 143
e 45 90
e 45 215
e 45 92
e 45 160
e 45 178
e 46 65
e 46 174
e 46 54
e 46 167
e 47 142
e 47 127
e 47 173
e 47 195
e 48 60
e 48 129
e 48 123
e 49 87
e 49 93
e 49 217
e 49 183
e 49 76
e 49 191
e 49 90
e 49 143
e 50 66
e 50 96
e 50 157
e 50 133
e 50 200
e 50 146
e 50 244
e 51 168
e 51 242
e 51 180
e 51 161
e 51 218
e 51 74
e 51 101
e 52 123
e 52 129
e 52 227
e 52 64
e 52 220
e 53 206
e 53 197
e 53 136
e 53 203
e 53 172
e 53 260
e 54 174
e 54 167
e 54 102
e 55 241
e 55 255
e 55 175
e 55 174
e 55 65
e 56 213
e 56 202
e 56 130
e 56 237
e 57 216
e 57 182
e 57 149
e 57 169
e 57 229
e 57 188
e 58 180
e 58 161
e 58 170
e 58 74
e 58 131
e 58 135
e 58 66
e 58 225
e 59 109
e 59 157
e 60 128
e 60 89
e 60 210
e 60 129
e 61 248
e 61 236
e 61 145
e 61 121
e 62 215
e 62 179
e 62 178
e 62 199
e 63 162
e 63 249
e 63 124
e 63 223
e 63 192
e 63 81
e 64 227
e 64 205
e 64 219
e 64 105
e 65 174
e 65 255
e 65 167
e 65 79
e 65 112
e 66 131
e 66 96
e 66 225
e 66 200
e 67 230
e 67 141
e 67 70
e 67 233
e 67 204
e 68 249
e 68 189
e 68 122
e 68 134
e 68 176
e 68 162
e 68 223
e 69 107
e 69 154
e 69 231
e 69 98
e 70 138
e 70 228
e 70 230
e 71 184
e 71 171
e 71 212
e 71 165
e 72 197
e 72 206
e 72 95
e 72 203
e 73 140
e 73 139
e 73 103
e 73 171
e 73 214
e 73 212
e 74 161
e 74 218
e 74 135
e 75 148
e 75 154
e 75 86
e 75 153
e 75 107
e 75 243
e 76 87
e 76 90
e 76 211
e 77 200
e 77 225
e 77 258
e 78 210
e 78 132
e 78 261
e 79 255
e 79 196
e 79 112
e 79 193
e 80 114
e 80 144
e 80 99
e 80 185
e 80 163
e 81 223
e 81 156
e 81 234
e 81 192
e 82 205
e 82 172
e 82 216
e 83 134
e 83 145
e 83 101
e 84 251
e 84 221
e 84 104
e 84 164
e 84 168
e 85 93
e 85 148
e 85 150
e 85 246
e 86 148
e 86 153
e 86 187
e 87 93
e 87 150
e 87 246
e 87 211
e 88 247
e 88 152
e 88 166
e 88 120
e 89 220
e 89 210
e 89 128
e 90 143
e 90 92
e 90 186
e 91 116
e 91 254
e 91 177
e 91 104
e 91 209
e 91 226
e 92 186
e 92 160
e 93 148
e 93 150
e 93 118
e 93 217
e 94 181
e 94 187
e 94 257
e 95 212
e 95 165
e 95 111
e 95 206
e 95 203
e 95 189
e 95 249
e 96 131
e 97 106
e 97 239
e 97 116
e 97 173
e 98 107
e 98 243
e 98 231
e 98 141
e 98 208
e 98 233
e 98 253
e 99 208
e 99 144
e 99 137
e 99 185
e 100 252
e 100 192
e 100 113
e 100 202
e 101 232
e 102 112
e 102 167
e 102 193
e 102 126
e 103 140
e 103 214
e 103 125
e 104 251
e 104 254
e 104 226
e 104 168
e 104 170
e 104 131
e 105 219
e 105 188
e 105 120
e 105 166
e 106 211
e 106 239
e 107 154
e 107 243
e 108 209
e 108 226
e 108 109
e 110 195
e 110 235
e 110 119
e 110 251
e 110 221
e 111 212
e 111 189
e 112 167
e 112 193
e 113 169
e 113 252
e 113 147
e 114 243
e 114 153
e 114 208
e 114 144
e 115 125
e 115 214
e 116 239
e 116 173
e 116 254
e 116 177
e 116 209
e 117 122
e 117 134
e 118 148
e 118 238
e 118 217
e 119 127
e 119 235
e 120 247
e 120 188
e 120 166
e 121 145
e 121 222
e 122 189
e 122 134
e 123 256
e 123 129
e 123 227
e 124 194
e 124 249
e 124 252
e 124 192
e 125 140
e 125 214
e 126 244
e 126 146
e 126 158
e 127 160
e 127 178
e 127 142
e 128 220
e 128 129
e 129 220
e 130 213
e 130 255
e 130 237
e 131 170
e 132 210
e 132 190
e 133 157
e 133 146
e 133 158
e 134 145
e 134 176
e 134 236
e 135 218
e 135 232
e 135 175
e 135 225
e 136 256
e 136 172
e 136 227
e 137 208
e 137 253
e 138 201
e 138 230
e 138 228
e 139 171
e 139 163
e 139 140
e 140 245
e 141 230
e 141 231
e 141 233
e 142 173
e 143 259
e 143 191
e 143 155
e 143 151
e 143 215
e 143 179
e 144 208
e 145 236
e 146 244
e 146 158
e 147 169
e 147 229
e 148 201
e 148 154
e 148 246
e 149 182
e 149 219
e 149 188
e 150 246
e 151 155
e 151 179
e 151 159
e 151 207
e 151 250
e 151 199
e 152 229
e 152 188
e 152 247
e 152 166
e 153 243
e 154 201
e 154 231
e 155 181
e 155 259
e 155 159
e 156 223
e 156 248
e 156 234
e 156 224
e 157 158
e 157 239
e 158 239
e 159 257
e 159 163
e 159 207
e 159 245
e 160 186
e 160 178
e 161 180
e 162 249
e 162 223
e 163 257
e 163 185
e 163 171
e 164 221
e 164 168
e 165 184
e 165 261
e 165 206
e 165 212
e 168 242
e 168 170
e 168 180
e 169 252
e 169 229
e 170 180
e 171 185
e 171 212
e 172 260
e 172 227
e 172 205
e 172 216
e 173 195
e 173 254
e 174 175
e 174 258
e 175 232
e 175 225
e 175 258
e 176 236
e 176 248
e 176 223
e 177 209
e 178 215
e 178 199
e 179 215
e 179 199
e 181 259
e 182 216
e 183 238
e 183 217
e 183 191
e 187 257
e 188 219
e 188 229
e 188 247
e 189 249
e 190 261
e 190 206
e 190 256
e 191 238
e 191 259
e 192 252
e 192 234
e 192 202
e 193 196
e 194 249
e 194 216
e 195 235
e 195 251
e 195 254
e 196 255
e 197 206
e 197 203
e 198 199
e 198 250
e 199 250
e 200 244
e 201 230
e 201 231
e 202 234
e 202 213
e 203 260
e 203 249
e 204 233
e 204 210
e 204 220
e 205 227
e 205 219
e 206 261
e 207 245
e 207 250
e 208 243
e 208 253
e 209 226
e 209 239
e 210 220
e 211 246
e 211 239
e 212 214
e 217 238
e 218 232
e 221 251
e 222 224
e 222 241
e 223 248
e 224 234
e 224 240
e 224 241
e 224 255
e 225 258
e 227 256
e 230 231
e 233 253
e 234 240
e 236 248
e 238 259
e 239 246
e 241 255
e 251 254
